20
96
10
21
61
6
34
39
74
96
7
4
69
0 1
0 2
0 3
0 4
0 5
0 6
0 7
0 8
0 13
0 16
1 2
1 4
1 7
1 8
1 10
1 11
1 13
1 14
1 15
2 3
2 6
2 11
2 13
2 14
2 16
2 17
2 18
3 4
3 7
3 11
3 12
3 14
3 15
3 16
3 18
3 19
4 5
4 6
4 8
4 10
4 13
4 16
4 18
4 19
5 6
5 7
5 9
5 10
5 12
5 14
5 17
5 18
6 8
6 11
6 12
6 13
6 15
6 18
7 10
7 11
7 13
8 12
8 13
8 14
8 17
8 19
9 10
9 11
9 12
9 16
9 18
10 12
10 14
10 17
10 18
11 12
11 13
11 15
11 17
11 18
12 13
12 14
12 15
12 19
13 17
13 18
13 19
14 15
14 17
14 19
15 16
15 17
16 17
16 19
17 18
17 19
15 11
1 12
6 2
18 8
0 5
16 4
13 19
10 3
9 17
14 7
